p edge 510 495
e 1 2
e 1 3
e 1 4
e 1 5
e 1 6
e 1 7
e 1 8
e 1 9
e 1 10
e 1 11
e 1 12
e 1 13
e 14 15
e 14 16
e 14 17
e 14 18
e 14 19
e 14 20
e 14 21
e 14 22
e 14 23
e 14 24
e 14 25
e 14 26
e 14 27
e 14 28
e 14 29
e 14 30
e 14 31
e 14 32
e 14 33
e 14 34
e 14 35
e 14 36
e 14 37
e 14 38
e 14 39
e 14 40
e 14 41
e 14 42
e 14 43
e 44 45
e 44 46
e 44 47
e 44 48
e 44 49
e 44 50
e 44 51
e 44 52
e 44 53
e 44 54
e 44 55
e 44 56
e 44 57
e 44 58
e 44 59
e 44 60
e 44 61
e 44 62
e 44 63
e 44 64
e 44 65
e 44 66
e 44 67
e 44 68
e 44 69
e 44 70
e 44 71
e 44 72
e 44 73
e 44 74
e 44 75
e 44 76
e 44 77
e 44 78
e 44 79
e 44 80
e 44 81
e 44 82
e 44 83
e 44 84
e 44 85
e 44 86
e 44 87
e 44 88
e 44 89
e 44 90
e 44 91
e 44 92
e 44 93
e 44 94
e 44 95
e 44 96
e 97 98
e 97 99
e 97 100
e 97 101
e 97 102
e 97 103
e 97 104
e 97 105
e 97 106
e 97 107
e 97 108
e 97 109
e 97 110
e 97 111
e 97 112
e 97 113
e 97 114
e 97 115
e 97 116
e 97 117
e 97 118
e 97 119
e 97 120
e 97 121
e 97 122
e 97 123
e 97 124
e 97 125
e 97 126
e 97 127
e 128 129
e 128 130
e 128 131
e 128 132
e 128 133
e 128 134
e 128 135
e 128 136
e 128 137
e 128 138
e 128 139
e 128 140
e 128 141
e 128 142
e 128 143
e 128 144
e 128 145
e 128 146
e 128 147
e 128 148
e 128 149
e 128 150
e 128 151
e 128 152
e 128 153
e 128 154
e 128 155
e 128 156
e 128 157
e 128 158
e 128 159
e 128 160
e 128 161
e 128 162
e 128 163
e 128 164
e 128 165
e 128 166
e 128 167
e 128 168
e 128 169
e 128 170
e 128 171
e 128 172
e 128 173
e 128 174
e 128 175
e 128 176
e 128 177
e 128 178
e 128 179
e 128 180
e 128 181
e 128 182
e 128 183
e 128 184
e 128 185
e 186 187
e 186 188
e 186 189
e 186 190
e 186 191
e 186 192
e 186 193
e 186 194
e 186 195
e 186 196
e 186 197
e 186 198
e 186 199
e 186 200
e 186 201
e 186 202
e 186 203
e 186 204
e 186 205
e 186 206
e 186 207
e 186 208
e 186 209
e 186 210
e 186 211
e 186 212
e 186 213
e 186 214
e 186 215
e 186 216
e 186 217
e 186 218
e 186 219
e 186 220
e 186 221
e 186 222
e 223 224
e 223 225
e 223 226
e 223 227
e 223 228
e 223 229
e 223 230
e 223 231
e 223 232
e 223 233
e 223 234
e 223 235
e 223 236
e 223 237
e 223 238
e 223 239
e 223 240
e 223 241
e 223 242
e 223 243
e 223 244
e 223 245
e 223 246
e 223 247
e 223 248
e 249 250
e 249 251
e 249 252
e 249 253
e 249 254
e 249 255
e 249 256
e 249 257
e 249 258
e 249 259
e 249 260
e 249 261
e 249 262
e 249 263
e 249 264
e 249 265
e 249 266
e 249 267
e 249 268
e 249 269
e 249 270
e 249 271
e 249 272
e 249 273
e 249 274
e 249 275
e 249 276
e 249 277
e 249 278
e 249 279
e 249 280
e 249 281
e 249 282
e 249 283
e 249 284
e 249 285
e 249 286
e 249 287
e 249 288
e 249 289
e 249 290
e 249 291
e 249 292
e 249 293
e 249 294
e 249 295
e 249 296
e 249 297
e 249 298
e 249 299
e 249 300
e 249 301
e 249 302
e 249 303
e 249 304
e 249 305
e 249 306
e 249 307
e 249 308
e 309 310
e 309 311
e 309 312
e 309 313
e 309 314
e 309 315
e 309 316
e 309 317
e 309 318
e 309 319
e 309 320
e 309 321
e 309 322
e 309 323
e 309 324
e 309 325
e 309 326
e 309 327
e 309 328
e 309 329
e 309 330
e 309 331
e 309 332
e 309 333
e 309 334
e 309 335
e 309 336
e 309 337
e 309 338
e 309 339
e 309 340
e 309 341
e 309 342
e 309 343
e 309 344
e 309 345
e 309 346
e 309 347
e 309 348
e 309 349
e 309 350
e 309 351
e 309 352
e 309 353
e 309 354
e 309 355
e 356 357
e 356 358
e 356 359
e 356 360
e 356 361
e 356 362
e 356 363
e 356 364
e 356 365
e 356 366
e 356 367
e 356 368
e 356 369
e 356 370
e 356 371
e 356 372
e 356 373
e 356 374
e 356 375
e 356 376
e 356 377
e 378 379
e 378 380
e 378 381
e 378 382
e 378 383
e 378 384
e 378 385
e 378 386
e 378 387
e 378 388
e 378 389
e 378 390
e 378 391
e 378 392
e 378 393
e 378 394
e 395 396
e 395 397
e 395 398
e 395 399
e 395 400
e 395 401
e 395 402
e 395 403
e 395 404
e 395 405
e 395 406
e 395 407
e 395 408
e 409 410
e 409 411
e 409 412
e 409 413
e 409 414
e 409 415
e 409 416
e 409 417
e 409 418
e 409 419
e 409 420
e 409 421
e 409 422
e 409 423
e 409 424
e 409 425
e 409 426
e 409 427
e 409 428
e 409 429
e 409 430
e 409 431
e 409 432
e 409 433
e 409 434
e 409 435
e 409 436
e 409 437
e 409 438
e 409 439
e 409 440
e 409 441
e 409 442
e 443 444
e 443 445
e 443 446
e 443 447
e 443 448
e 443 449
e 443 450
e 443 451
e 443 452
e 443 453
e 443 454
e 443 455
e 443 456
e 443 457
e 443 458
e 443 459
e 443 460
e 443 461
e 443 462
e 443 463
e 443 464
e 443 465
e 443 466
e 443 467
e 443 468
e 443 469
e 443 470
e 443 471
e 443 472
e 443 473
e 443 474
e 443 475
e 443 476
e 443 477
e 443 478
e 443 479
e 443 480
e 443 481
e 443 482
e 443 483
e 443 484
e 443 485
e 443 486
e 443 487
e 443 488
e 443 489
e 443 490
e 443 491
e 443 492
e 443 493
e 443 494
e 443 495
e 443 496
e 443 497
e 443 498
e 499 500
e 499 501
e 499 502
e 499 503
e 499 504
e 499 505
e 499 506
e 499 507
e 499 508
e 499 509
e 499 510
